p cnf 103 612
-22 -23 0
-22 -24 0
-22 -25 0
-22 -26 0
-22 -27 0
-23 -24 0
-23 -25 0
-23 -26 0
-23 -27 0
-24 -25 0
-24 -26 0
-24 -27 0
-25 -26 0
-25 -27 0
-26 -27 0
22 23 24 25 26 27 0
-28 -29 0
-28 -30 0
-28 -31 0
-28 -32 0
-28 -33 0
-29 -30 0
-29 -31 0
-29 -32 0
-29 -33 0
-30 -31 0
-30 -32 0
-30 -33 0
-31 -32 0
-31 -33 0
-32 -33 0
28 29 30 31 32 33 0
-22 -28 0
-23 -29 0
-24 -30 0
-25 -31 0
-26 -32 0
-27 -33 0
1 -22 -29 0
1 -28 -23 0
2 -22 -30 0
2 -28 -24 0
3 -22 -31 0
3 -28 -25 0
4 -22 0
4 -28 0
5 -22 -32 0
5 -28 -26 0
6 -22 -33 0
6 -28 -27 0
7 -23 -30 0
7 -29 -24 0
8 -23 -31 0
8 -29 -25 0
9 -23 0
9 -29 0
10 -23 -32 0
10 -29 -26 0
11 -23 -33 0
11 -29 -27 0
12 -24 -31 0
12 -30 -25 0
13 -24 0
13 -30 0
14 -24 -32 0
14 -30 -26 0
15 -24 -33 0
15 -30 -27 0
16 -25 0
16 -31 0
17 -25 -32 0
17 -31 -26 0
18 -25 -33 0
18 -31 -27 0
19 -26 0
19 -32 0
20 -27 0
20 -33 0
21 -26 -33 0
21 -32 -27 0
-34 -35 0
-34 -36 0
-34 -37 0
-34 -38 0
-34 -39 0
-34 -40 0
-34 -41 0
-34 -42 0
-34 -43 0
-35 -36 0
-35 -37 0
-35 -38 0
-35 -39 0
-35 -40 0
-35 -41 0
-35 -42 0
-35 -43 0
-36 -37 0
-36 -38 0
-36 -39 0
-36 -40 0
-36 -41 0
-36 -42 0
-36 -43 0
-37 -38 0
-37 -39 0
-37 -40 0
-37 -41 0
-37 -42 0
-37 -43 0
-38 -39 0
-38 -40 0
-38 -41 0
-38 -42 0
-38 -43 0
-39 -40 0
-39 -41 0
-39 -42 0
-39 -43 0
-40 -41 0
-40 -42 0
-40 -43 0
-41 -42 0
-41 -43 0
-42 -43 0
34 35 36 37 38 39 40 41 42 43 0
-44 -45 0
-44 -46 0
-44 -47 0
-44 -48 0
-44 -49 0
-44 -50 0
-44 -51 0
-44 -52 0
-44 -53 0
-45 -46 0
-45 -47 0
-45 -48 0
-45 -49 0
-45 -50 0
-45 -51 0
-45 -52 0
-45 -53 0
-46 -47 0
-46 -48 0
-46 -49 0
-46 -50 0
-46 -51 0
-46 -52 0
-46 -53 0
-47 -48 0
-47 -49 0
-47 -50 0
-47 -51 0
-47 -52 0
-47 -53 0
-48 -49 0
-48 -50 0
-48 -51 0
-48 -52 0
-48 -53 0
-49 -50 0
-49 -51 0
-49 -52 0
-49 -53 0
-50 -51 0
-50 -52 0
-50 -53 0
-51 -52 0
-51 -53 0
-52 -53 0
44 45 46 47 48 49 50 51 52 53 0
-54 -55 0
-54 -56 0
-54 -57 0
-54 -58 0
-54 -59 0
-54 -60 0
-54 -61 0
-54 -62 0
-54 -63 0
-55 -56 0
-55 -57 0
-55 -58 0
-55 -59 0
-55 -60 0
-55 -61 0
-55 -62 0
-55 -63 0
-56 -57 0
-56 -58 0
-56 -59 0
-56 -60 0
-56 -61 0
-56 -62 0
-56 -63 0
-57 -58 0
-57 -59 0
-57 -60 0
-57 -61 0
-57 -62 0
-57 -63 0
-58 -59 0
-58 -60 0
-58 -61 0
-58 -62 0
-58 -63 0
-59 -60 0
-59 -61 0
-59 -62 0
-59 -63 0
-60 -61 0
-60 -62 0
-60 -63 0
-61 -62 0
-61 -63 0
-62 -63 0
54 55 56 57 58 59 60 61 62 63 0
-64 -65 0
-64 -66 0
-64 -67 0
-64 -68 0
-64 -69 0
-64 -70 0
-64 -71 0
-64 -72 0
-64 -73 0
-65 -66 0
-65 -67 0
-65 -68 0
-65 -69 0
-65 -70 0
-65 -71 0
-65 -72 0
-65 -73 0
-66 -67 0
-66 -68 0
-66 -69 0
-66 -70 0
-66 -71 0
-66 -72 0
-66 -73 0
-67 -68 0
-67 -69 0
-67 -70 0
-67 -71 0
-67 -72 0
-67 -73 0
-68 -69 0
-68 -70 0
-68 -71 0
-68 -72 0
-68 -73 0
-69 -70 0
-69 -71 0
-69 -72 0
-69 -73 0
-70 -71 0
-70 -72 0
-70 -73 0
-71 -72 0
-71 -73 0
-72 -73 0
64 65 66 67 68 69 70 71 72 73 0
-74 -75 0
-74 -76 0
-74 -77 0
-74 -78 0
-74 -79 0
-74 -80 0
-74 -81 0
-74 -82 0
-74 -83 0
-75 -76 0
-75 -77 0
-75 -78 0
-75 -79 0
-75 -80 0
-75 -81 0
-75 -82 0
-75 -83 0
-76 -77 0
-76 -78 0
-76 -79 0
-76 -80 0
-76 -81 0
-76 -82 0
-76 -83 0
-77 -78 0
-77 -79 0
-77 -80 0
-77 -81 0
-77 -82 0
-77 -83 0
-78 -79 0
-78 -80 0
-78 -81 0
-78 -82 0
-78 -83 0
-79 -80 0
-79 -81 0
-79 -82 0
-79 -83 0
-80 -81 0
-80 -82 0
-80 -83 0
-81 -82 0
-81 -83 0
-82 -83 0
74 75 76 77 78 79 80 81 82 83 0
-84 -85 0
-84 -86 0
-84 -87 0
-84 -88 0
-84 -89 0
-84 -90 0
-84 -91 0
-84 -92 0
-84 -93 0
-85 -86 0
-85 -87 0
-85 -88 0
-85 -89 0
-85 -90 0
-85 -91 0
-85 -92 0
-85 -93 0
-86 -87 0
-86 -88 0
-86 -89 0
-86 -90 0
-86 -91 0
-86 -92 0
-86 -93 0
-87 -88 0
-87 -89 0
-87 -90 0
-87 -91 0
-87 -92 0
-87 -93 0
-88 -89 0
-88 -90 0
-88 -91 0
-88 -92 0
-88 -93 0
-89 -90 0
-89 -91 0
-89 -92 0
-89 -93 0
-90 -91 0
-90 -92 0
-90 -93 0
-91 -92 0
-91 -93 0
-92 -93 0
84 85 86 87 88 89 90 91 92 93 0
-94 -95 0
-94 -96 0
-94 -97 0
-94 -98 0
-94 -99 0
-94 -100 0
-94 -101 0
-94 -102 0
-94 -103 0
-95 -96 0
-95 -97 0
-95 -98 0
-95 -99 0
-95 -100 0
-95 -101 0
-95 -102 0
-95 -103 0
-96 -97 0
-96 -98 0
-96 -99 0
-96 -100 0
-96 -101 0
-96 -102 0
-96 -103 0
-97 -98 0
-97 -99 0
-97 -100 0
-97 -101 0
-97 -102 0
-97 -103 0
-98 -99 0
-98 -100 0
-98 -101 0
-98 -102 0
-98 -103 0
-99 -100 0
-99 -101 0
-99 -102 0
-99 -103 0
-100 -101 0
-100 -102 0
-100 -103 0
-101 -102 0
-101 -103 0
-102 -103 0
94 95 96 97 98 99 100 101 102 103 0
-1 -34 -44 0
-1 -35 -45 0
-1 -36 -46 0
-1 -37 -47 0
-1 -38 -48 0
-1 -39 -49 0
-1 -40 -50 0
-1 -41 -51 0
-1 -42 -52 0
-1 -43 -53 0
-2 -34 -54 0
-2 -35 -55 0
-2 -36 -56 0
-2 -37 -57 0
-2 -38 -58 0
-2 -39 -59 0
-2 -40 -60 0
-2 -41 -61 0
-2 -42 -62 0
-2 -43 -63 0
-3 -34 -64 0
-3 -35 -65 0
-3 -36 -66 0
-3 -37 -67 0
-3 -38 -68 0
-3 -39 -69 0
-3 -40 -70 0
-3 -41 -71 0
-3 -42 -72 0
-3 -43 -73 0
-4 -34 -74 0
-4 -35 -75 0
-4 -36 -76 0
-4 -37 -77 0
-4 -38 -78 0
-4 -39 -79 0
-4 -40 -80 0
-4 -41 -81 0
-4 -42 -82 0
-4 -43 -83 0
-5 -34 -84 0
-5 -35 -85 0
-5 -36 -86 0
-5 -37 -87 0
-5 -38 -88 0
-5 -39 -89 0
-5 -40 -90 0
-5 -41 -91 0
-5 -42 -92 0
-5 -43 -93 0
-6 -34 -94 0
-6 -35 -95 0
-6 -36 -96 0
-6 -37 -97 0
-6 -38 -98 0
-6 -39 -99 0
-6 -40 -100 0
-6 -41 -101 0
-6 -42 -102 0
-6 -43 -103 0
-7 -44 -54 0
-7 -45 -55 0
-7 -46 -56 0
-7 -47 -57 0
-7 -48 -58 0
-7 -49 -59 0
-7 -50 -60 0
-7 -51 -61 0
-7 -52 -62 0
-7 -53 -63 0
-8 -44 -64 0
-8 -45 -65 0
-8 -46 -66 0
-8 -47 -67 0
-8 -48 -68 0
-8 -49 -69 0
-8 -50 -70 0
-8 -51 -71 0
-8 -52 -72 0
-8 -53 -73 0
-9 -44 -74 0
-9 -45 -75 0
-9 -46 -76 0
-9 -47 -77 0
-9 -48 -78 0
-9 -49 -79 0
-9 -50 -80 0
-9 -51 -81 0
-9 -52 -82 0
-9 -53 -83 0
-10 -44 -84 0
-10 -45 -85 0
-10 -46 -86 0
-10 -47 -87 0
-10 -48 -88 0
-10 -49 -89 0
-10 -50 -90 0
-10 -51 -91 0
-10 -52 -92 0
-10 -53 -93 0
-11 -44 -94 0
-11 -45 -95 0
-11 -46 -96 0
-11 -47 -97 0
-11 -48 -98 0
-11 -49 -99 0
-11 -50 -100 0
-11 -51 -101 0
-11 -52 -102 0
-11 -53 -103 0
-12 -54 -64 0
-12 -55 -65 0
-12 -56 -66 0
-12 -57 -67 0
-12 -58 -68 0
-12 -59 -69 0
-12 -60 -70 0
-12 -61 -71 0
-12 -62 -72 0
-12 -63 -73 0
-13 -54 -74 0
-13 -55 -75 0
-13 -56 -76 0
-13 -57 -77 0
-13 -58 -78 0
-13 -59 -79 0
-13 -60 -80 0
-13 -61 -81 0
-13 -62 -82 0
-13 -63 -83 0
-14 -54 -84 0
-14 -55 -85 0
-14 -56 -86 0
-14 -57 -87 0
-14 -58 -88 0
-14 -59 -89 0
-14 -60 -90 0
-14 -61 -91 0
-14 -62 -92 0
-14 -63 -93 0
-15 -54 -94 0
-15 -55 -95 0
-15 -56 -96 0
-15 -57 -97 0
-15 -58 -98 0
-15 -59 -99 0
-15 -60 -100 0
-15 -61 -101 0
-15 -62 -102 0
-15 -63 -103 0
-16 -64 -74 0
-16 -65 -75 0
-16 -66 -76 0
-16 -67 -77 0
-16 -68 -78 0
-16 -69 -79 0
-16 -70 -80 0
-16 -71 -81 0
-16 -72 -82 0
-16 -73 -83 0
-17 -64 -84 0
-17 -65 -85 0
-17 -66 -86 0
-17 -67 -87 0
-17 -68 -88 0
-17 -69 -89 0
-17 -70 -90 0
-17 -71 -91 0
-17 -72 -92 0
-17 -73 -93 0
-18 -64 -94 0
-18 -65 -95 0
-18 -66 -96 0
-18 -67 -97 0
-18 -68 -98 0
-18 -69 -99 0
-18 -70 -100 0
-18 -71 -101 0
-18 -72 -102 0
-18 -73 -103 0
-19 -74 -84 0
-19 -75 -85 0
-19 -76 -86 0
-19 -77 -87 0
-19 -78 -88 0
-19 -79 -89 0
-19 -80 -90 0
-19 -81 -91 0
-19 -82 -92 0
-19 -83 -93 0
-20 -74 -94 0
-20 -75 -95 0
-20 -76 -96 0
-20 -77 -97 0
-20 -78 -98 0
-20 -79 -99 0
-20 -80 -100 0
-20 -81 -101 0
-20 -82 -102 0
-20 -83 -103 0
-21 -84 -94 0
-21 -85 -95 0
-21 -86 -96 0
-21 -87 -97 0
-21 -88 -98 0
-21 -89 -99 0
-21 -90 -100 0
-21 -91 -101 0
-21 -92 -102 0
-21 -93 -103 0
